
--- Job small-working1.gms Start 09/08/22 11:13:33 39.2.0 e0c5072f WEX-WEI x86 64bit/MS Windows
--- Applying:
    C:\GAMS\39\gmsprmNT.txt
--- GAMS Parameters defined
    Input C:\Users\tawfiq\Desktop\gams\others\small-working1.gms
    PageSize 0
    ScrDir C:\Users\tawfiq\Desktop\gams\others\225a\
    SysDir C:\GAMS\39\
    LogOption 3
    ErrMsg 1
    ErrorLog 99
    IDE 1
    LstTitleLeftAligned 1
Licensee: GAMS Demo license for TAWFIQ HAFIZI            G220605|0002CO-GEN
          Military Institute, Bangladesh                           DL068940
          C:\Users\tawfiq\Documents\GAMS\gamslice.txt
          tawfiqhasan58@gmail.com, TAWFIQ HAFIZI                           
          Demo license for demonstration and instructional purposes only
Processor information: 1 socket(s), 2 core(s), and 4 thread(s) available
GAMS 39.2.0   Copyright (C) 1987-2022 GAMS Development. All rights reserved
--- Starting compilation
--- small-working1.gms(393) 3 Mb
--- Starting execution: elapsed 0:00:00.016
--- Generating MIP model supplychainmodel
--- small-working1.gms(393) 4 Mb
---   189 rows  267 columns  665 non-zeroes
---   58 discrete-columns
--- Range statistics (absolute non-zero finite values)
--- RHS       [min, max] : [ 8.000E+00, 2.503E+05] - Zero values observed as well
--- Bound     [min, max] : [ 1.000E+00, 1.000E+00] - Zero values observed as well
--- Matrix    [min, max] : [ 1.000E+00, 1.000E+11]
--- Executing CPLEX (Solvelink=2): elapsed 0:00:00.031

IBM ILOG CPLEX   39.2.0 e0c5072f Jun 2, 2022           WEI x86 64bit/MS Window

--- *** This solver runs with a demo license. No commercial use.
--- GMO setup time: 0.00s
--- Space for names approximately 0.02 Mb
--- Use option 'names no' to turn use of names off
--- GMO memory 0.55 Mb (peak 0.55 Mb)
--- Dictionary memory 0.00 Mb
--- Cplex 22.1.0.0 link memory 0.01 Mb (peak 0.04 Mb)
--- Starting Cplex

Version identifier: 22.1.0.0 | 2022-03-09 | 1a383f8ce
CPXPARAM_Advance                                 0
CPXPARAM_Threads                                 1
CPXPARAM_MIP_Display                             4
CPXPARAM_MIP_Pool_Capacity                       0
CPXPARAM_MIP_Tolerances_AbsMIPGap                0
Generic callback                                 0x50
Found incumbent of value 1708.000000 after 0.00 sec. (0.01 ticks)
Tried aggregator 2 times.
MIP Presolve eliminated 129 rows and 175 columns.
MIP Presolve modified 30 coefficients.
Aggregator did 16 substitutions.
Reduced MIP has 43 rows, 76 columns, and 194 nonzeros.
Reduced MIP has 0 binaries, 0 generals, 0 SOSs, and 0 indicators.
Presolve time = 0.00 sec. (0.39 ticks)
Tried aggregator 1 time.
Detecting symmetries...
MIP Presolve eliminated 10 rows and 14 columns.
Reduced MIP has 33 rows, 62 columns, and 138 nonzeros.
Reduced MIP has 0 binaries, 0 generals, 0 SOSs, and 0 indicators.
Presolve time = 0.00 sec. (0.12 ticks)

Root node processing (before b&c):
  Real time             =    0.02 sec. (0.57 ticks)
Sequential b&c:
  Real time             =    0.00 sec. (0.00 ticks)
                          ------------
Total (root+branch&cut) =    0.02 sec. (0.57 ticks)

--- MIP status (101): integer optimal solution.
--- Cplex Time: 0.02sec (det. 0.57 ticks)

--- Fixing integer variables and solving final LP...

Version identifier: 22.1.0.0 | 2022-03-09 | 1a383f8ce
CPXPARAM_Advance                                 2
CPXPARAM_Threads                                 1
CPXPARAM_MIP_Display                             4
CPXPARAM_MIP_Pool_Capacity                       0
CPXPARAM_MIP_Tolerances_AbsMIPGap                0
Tried aggregator 1 time.
LP Presolve eliminated 70 rows and 95 columns.
Aggregator did 20 substitutions.
Reduced LP has 98 rows, 152 columns, and 430 nonzeros.
Presolve time = 0.00 sec. (0.32 ticks)

Iteration log . . .
Iteration:     1   Dual objective     =          1588.000000
Perturbation started.
Iteration:    51   Dual objective     =          1588.000000
Removing perturbation.

--- Fixed MIP status (1): optimal.
--- Cplex Time: 0.00sec (det. 0.65 ticks)


Proven optimal solution
MIP Solution:         1588.000000    (0 iterations, 0 nodes)
Final Solve:          1588.000000    (53 iterations)

Best possible:        1588.000000
Absolute gap:            0.000000
Relative gap:            0.000000

--- Reading solution for model supplychainmodel
*** Status: Normal completion
--- Job small-working1.gms Stop 09/08/22 11:13:33 elapsed 0:00:00.112
